nNurses = 126;
nHours = 37;
minHours = 5;
maxHours = 16;
maxConsec = 14;
maxPresence = 30;
demand = [34, 32, 35, 40, 37, 37, 33, 33, 29, 28, 27, 27, 27, 29, 28, 24, 29, 27, 23, 28, 24, 26, 30, 35, 32, 35, 36, 35, 35, 40, 39, 38, 41, 43, 43, 38, 42];
